Route #1: 1 29 11 24 133 1 
Route #2: 1 83 89 1 
Route #3: 1 25 78 12 135 52 19 1 
Route #4: 1 132 56 45 1 
Route #5: 1 140 72 62 79 1 
Route #6: 1 5 38 147 102 1 
Route #7: 1 49 128 92 82 77 111 1 
Route #8: 1 1 9 63 1 
Route #9: 1 69 31 6 8 60 97 1 
Route #10: 1 145 55 107 43 1 
Route #11: 1 28 143 33 59 1 
Route #12: 1 71 118 86 1 
Route #13: 1 124 47 68 42 1 
Route #14: 1 141 95 1 
Route #15: 1 87 2 70 22 1 
Route #16: 1 30 98 126 39 1 
Route #17: 1 27 136 1 
Route #18: 1 121 4 37 125 1 
Route #19: 1 51 131 48 1 
Route #20: 1 41 108 94 1 
Route #21: 1 64 16 115 1 
Route #22: 1 58 84 96 1 
Route #23: 1 93 134 142 1 
Route #24: 1 76 46 122 1 
Route #25: 1 21 99 1 
Route #26: 1 123 137 23 1 
Route #27: 1 85 34 36 1 
Route #28: 1 50 74 100 20 1 
Route #29: 1 73 53 15 1 
Route #30: 1 144 116 57 1 
Route #31: 1 109 139 66 1 
Route #32: 1 114 81 7 1 
Route #33: 1 146 17 104 1 
Route #34: 1 35 32 1 
Route #35: 1 112 127 110 1 
Route #36: 1 13 91 54 1 
Route #37: 1 65 90 1 
Route #38: 1 138 105 1 
Route #39: 1 75 106 1 
Route #40: 1 130 40 1 
Route #41: 1 113 129 1 
Route #42: 1 117 80 26 1 
Route #43: 1 18 88 1 
Route #44: 1 44 67 1 
Route #45: 1 3 119 120 1 
Route #46: 1 10 14 61 101 1 
Route #47: 1 103 1 

Cost 71029.1
Time 4.9793


 * Another infos *

 Iterations: 148 Time: 4.9793 sec - 0.0830 min - 0.0014 horas
0.0000 h 0.0830 min
Problem dimension: 148
